p cnf 13 29
13 12 7 0
13 -12 4 0
13 11 -8 0
13 11 -1 0
13 -10 8 0
-13 10 7 0
13 10 -3 0
13 -9 5 0
-13 8 -7 0
13 -8 -2 0
12 9 -8 0
12 -8 2 0
12 -7 -5 0
-11 10 -9 0
-11 9 3 0
-11 -8 -5 0
-11 8 -2 0
-11 -6 -4 0
11 -5 1 0
-10 9 7 0
10 8 2 0
10 6 4 0
10 -5 -2 0
10 4 -3 0
10 -3 -1 0
9 -7 -5 0
7 5 -3 0
-7 -5 1 0
4 3 1 0
